p cnf 48 145
a 44 15 0
e 1 2 3 4 5 6 7 8 9 10 11 12 13 14 16 17 18 19 20 21 22 23 24 25 26 27 28 29 30 31 32 33 34 35 36 37 38 39 40 41 42 43 45 46 47 48 0
3 -1 0
3 2 0
1 -2 -3 0
-6 -4 0
-6 -5 0
4 5 6 0
7 -3 0
7 -6 0
3 6 -7 0
-2 -1 -8 0
2 1 -8 0
-2 1 8 0
2 -1 8 0
9 -3 -10 0
-9 3 -10 0
9 3 10 0
-9 -3 10 0
-10 -11 -12 0
10 11 -12 0
-10 11 12 0
10 -11 12 0
13 -10 0
13 -12 0
10 12 -13 0
14 8 0
14 -13 0
-8 13 -14 0
14 -8 -15 0
-14 8 -15 0
14 8 15 0
-14 -8 15 0
7 15 -16 0
-7 -15 -16 0
7 -15 16 0
-7 15 16 0
17 -10 0
17 -6 0
10 6 -17 0
-18 -8 0
-18 -2 0
8 2 18 0
17 -18 -19 0
-17 18 -19 0
17 18 19 0
-17 -18 19 0
-20 -14 0
-20 14 0
21 20 0
21 1 0
-20 -1 -21 0
22 1 0
22 21 0
-1 -21 -22 0
23 10 0
23 10 0
-10 -23 0
-24 -22 0
-24 -23 0
22 23 24 0
19 24 -25 0
-19 -24 -25 0
19 -24 25 0
-19 24 25 0
26 16 0
26 25 0
-16 -25 -26 0
-28 -6 0
-28 27 0
6 -27 28 0
29 -28 0
29 4 0
28 -4 -29 0
30 -28 0
30 -29 0
28 29 -30 0
31 -29 0
31 13 0
29 -13 -31 0
32 -21 0
32 11 0
21 -11 -32 0
-33 -31 0
-33 -32 0
31 32 33 0
34 -2 0
34 5 0
2 -5 -34 0
-10 5 -35 0
10 -5 -35 0
-10 -5 35 0
10 5 35 0
36 34 0
36 35 0
-34 -35 -36 0
-33 -36 -37 0
33 36 -37 0
-33 36 37 0
33 -36 37 0
-30 37 -38 0
30 -37 -38 0
-30 -37 38 0
30 37 38 0
-39 26 0
-39 -38 0
-26 38 39 0
40 29 0
40 10 0
-29 -10 -40 0
-12 2 -41 0
12 -2 -41 0
-12 -2 41 0
12 2 41 0
-43 -27 0
-43 42 0
27 -42 43 0
-41 43 -44 0
41 -43 -44 0
-41 -43 44 0
41 43 44 0
45 -14 0
45 10 0
14 -10 -45 0
46 -44 0
46 -45 0
44 45 -46 0
47 -40 0
47 46 0
40 -46 -47 0
48 39 0
48 47 0
-39 -47 -48 0
-46 -10 -23 -19 37 -39 40 0
4 -33 13 -36 -41 -40 34 0
-35 -31 -48 -12 44 0
21 -17 -12 -27 -18 14 -38 0
2 3 6 0
-19 -35 20 21 -3 43 -38 0
-37 24 -43 -14 6 35 -13 -40 0
10 45 3 47 -32 -25 8 13 0
29 -40 46 45 16 7 -1 -30 0
-35 44 -42 0
46 44 -23 43 0
-39 33 9 -46 0
11 -32 -18 37 -34 42 22 -24 0
48 0
